p wcnf 354 1216
w -2 0.367879 0
w 2 2.718282 0
w -3 0.367879 0
w 3 2.718282 0
w -4 0.367879 0
w 4 2.718282 0
w -5 0.367879 0
w 5 2.718282 0
w -6 0.367879 0
w 6 2.718282 0
w -7 0.367879 0
w 7 2.718282 0
w -8 0.367879 0
w 8 2.718282 0
w -9 0.367879 0
w 9 2.718282 0
w -10 0.367879 0
w 10 2.718282 0
w -11 0.367879 0
w 11 2.718282 0
w -12 0.367879 0
w 12 2.718282 0
w -13 0.367879 0
w 13 2.718282 0
w -14 0.367879 0
w 14 2.718282 0
w -15 0.367879 0
w 15 2.718282 0
w -16 0.367879 0
w 16 2.718282 0
w -18 0.367879 0
w 18 2.718282 0
w -19 0.367879 0
w 19 2.718282 0
w -20 0.367879 0
w 20 2.718282 0
w -21 0.367879 0
w 21 2.718282 0
w -22 0.367879 0
w 22 2.718282 0
w -23 0.367879 0
w 23 2.718282 0
w -24 0.367879 0
w 24 2.718282 0
w -25 0.367879 0
w 25 2.718282 0
w -26 0.367879 0
w 26 2.718282 0
w -28 0.367879 0
w 28 2.718282 0
w -29 0.367879 0
w 29 2.718282 0
w -30 0.367879 0
w 30 2.718282 0
w -31 0.367879 0
w 31 2.718282 0
w -32 0.367879 0
w 32 2.718282 0
w -33 0.367879 0
w 33 2.718282 0
w -34 0.367879 0
w 34 2.718282 0
w -35 0.367879 0
w 35 2.718282 0
w -36 0.367879 0
w 36 2.718282 0
w -37 0.367879 0
w 37 2.718282 0
w -38 0.367879 0
w 38 2.718282 0
w -39 0.367879 0
w 39 2.718282 0
w -40 0.367879 0
w 40 2.718282 0
w -42 0.367879 0
w 42 2.718282 0
w -43 0.367879 0
w 43 2.718282 0
w -44 0.367879 0
w 44 2.718282 0
w -45 0.367879 0
w 45 2.718282 0
w -46 0.367879 0
w 46 2.718282 0
w -47 0.367879 0
w 47 2.718282 0
w -48 0.367879 0
w 48 2.718282 0
w -49 0.367879 0
w 49 2.718282 0
w -50 0.367879 0
w 50 2.718282 0
w -51 0.367879 0
w 51 2.718282 0
w -52 0.367879 0
w 52 2.718282 0
w -53 0.367879 0
w 53 2.718282 0
w -54 0.367879 0
w 54 2.718282 0
w -56 0.367879 0
w 56 2.718282 0
w -57 0.367879 0
w 57 2.718282 0
w -58 0.367879 0
w 58 2.718282 0
w -59 0.367879 0
w 59 2.718282 0
w -60 0.367879 0
w 60 2.718282 0
w -61 0.367879 0
w 61 2.718282 0
w -62 0.367879 0
w 62 2.718282 0
w -63 0.367879 0
w 63 2.718282 0
w -64 0.367879 0
w 64 2.718282 0
w -65 0.367879 0
w 65 2.718282 0
w -66 0.367879 0
w 66 2.718282 0
w -68 0.367879 0
w 68 2.718282 0
w -69 0.367879 0
w 69 2.718282 0
w -70 0.367879 0
w 70 2.718282 0
w -71 0.367879 0
w 71 2.718282 0
w -72 0.367879 0
w 72 2.718282 0
w -73 0.367879 0
w 73 2.718282 0
w -74 0.367879 0
w 74 2.718282 0
w -75 0.367879 0
w 75 2.718282 0
w -76 0.367879 0
w 76 2.718282 0
w -77 0.367879 0
w 77 2.718282 0
w -79 0.367879 0
w 79 2.718282 0
w -80 0.367879 0
w 80 2.718282 0
w -81 0.367879 0
w 81 2.718282 0
w -82 0.367879 0
w 82 2.718282 0
w -84 0.367879 0
w 84 2.718282 0
w -85 0.367879 0
w 85 2.718282 0
w -86 0.367879 0
w 86 2.718282 0
w -87 0.367879 0
w 87 2.718282 0
w -88 0.367879 0
w 88 2.718282 0
w -89 0.367879 0
w 89 2.718282 0
w -90 0.367879 0
w 90 2.718282 0
w -91 0.367879 0
w 91 2.718282 0
w -92 0.367879 0
w 92 2.718282 0
w -93 0.367879 0
w 93 2.718282 0
w -94 0.367879 0
w 94 2.718282 0
w -95 0.367879 0
w 95 2.718282 0
w -96 0.367879 0
w 96 2.718282 0
w -97 0.367879 0
w 97 2.718282 0
w -99 0.367879 0
w 99 2.718282 0
w -100 0.367879 0
w 100 2.718282 0
w -101 0.367879 0
w 101 2.718282 0
w -102 0.367879 0
w 102 2.718282 0
w -103 0.367879 0
w 103 2.718282 0
w -104 0.367879 0
w 104 2.718282 0
w -105 0.367879 0
w 105 2.718282 0
w -106 0.367879 0
w 106 2.718282 0
w -107 0.367879 0
w 107 2.718282 0
w -108 0.367879 0
w 108 2.718282 0
w -109 0.367879 0
w 109 2.718282 0
w -110 0.367879 0
w 110 2.718282 0
w -111 0.367879 0
w 111 2.718282 0
w -112 0.367879 0
w 112 2.718282 0
w -113 0.367879 0
w 113 2.718282 0
w -114 0.367879 0
w 114 2.718282 0
w -116 0.367879 0
w 116 2.718282 0
w -117 0.367879 0
w 117 2.718282 0
w -118 0.367879 0
w 118 2.718282 0
w -119 0.367879 0
w 119 2.718282 0
w -120 0.367879 0
w 120 2.718282 0
w -121 0.367879 0
w 121 2.718282 0
w -122 0.367879 0
w 122 2.718282 0
w -123 0.367879 0
w 123 2.718282 0
w -124 0.367879 0
w 124 2.718282 0
w -125 0.367879 0
w 125 2.718282 0
w -126 0.367879 0
w 126 2.718282 0
w -128 0.367879 0
w 128 2.718282 0
w -129 0.367879 0
w 129 2.718282 0
w -130 0.367879 0
w 130 2.718282 0
w -131 0.367879 0
w 131 2.718282 0
w -132 0.367879 0
w 132 2.718282 0
w -133 0.367879 0
w 133 2.718282 0
w -134 0.367879 0
w 134 2.718282 0
w -135 0.367879 0
w 135 2.718282 0
w -137 0.367879 0
w 137 2.718282 0
w -138 0.367879 0
w 138 2.718282 0
w -139 0.367879 0
w 139 2.718282 0
w -140 0.367879 0
w 140 2.718282 0
w -141 0.367879 0
w 141 2.718282 0
w -142 0.367879 0
w 142 2.718282 0
w -143 0.367879 0
w 143 2.718282 0
w -144 0.367879 0
w 144 2.718282 0
w -145 0.367879 0
w 145 2.718282 0
w -146 0.367879 0
w 146 2.718282 0
w -147 0.367879 0
w 147 2.718282 0
w -149 0.367879 0
w 149 2.718282 0
w -150 0.367879 0
w 150 2.718282 0
w -151 0.367879 0
w 151 2.718282 0
w -152 0.367879 0
w 152 2.718282 0
w -153 0.367879 0
w 153 2.718282 0
w -154 0.367879 0
w 154 2.718282 0
w -155 0.367879 0
w 155 2.718282 0
w -156 0.367879 0
w 156 2.718282 0
w -158 0.367879 0
w 158 2.718282 0
w -159 0.367879 0
w 159 2.718282 0
w -160 0.367879 0
w 160 2.718282 0
w -161 0.367879 0
w 161 2.718282 0
w -162 0.367879 0
w 162 2.718282 0
w -164 0.367879 0
w 164 2.718282 0
w -165 0.367879 0
w 165 2.718282 0
w -166 0.367879 0
w 166 2.718282 0
w -167 0.367879 0
w 167 2.718282 0
w -168 0.367879 0
w 168 2.718282 0
w -169 0.367879 0
w 169 2.718282 0
w -170 0.367879 0
w 170 2.718282 0
w -171 0.367879 0
w 171 2.718282 0
w -172 0.367879 0
w 172 2.718282 0
w -173 0.367879 0
w 173 2.718282 0
w -174 0.367879 0
w 174 2.718282 0
w -176 0.367879 0
w 176 2.718282 0
w -177 0.367879 0
w 177 2.718282 0
w -178 0.367879 0
w 178 2.718282 0
w -179 0.367879 0
w 179 2.718282 0
w -180 0.367879 0
w 180 2.718282 0
w -181 0.367879 0
w 181 2.718282 0
w -182 0.367879 0
w 182 2.718282 0
w -184 0.367879 0
w 184 2.718282 0
w -185 0.367879 0
w 185 2.718282 0
w -186 0.367879 0
w 186 2.718282 0
w -187 0.367879 0
w 187 2.718282 0
w -188 0.367879 0
w 188 2.718282 0
w -189 0.367879 0
w 189 2.718282 0
w -190 0.367879 0
w 190 2.718282 0
w -191 0.367879 0
w 191 2.718282 0
w -193 0.367879 0
w 193 2.718282 0
w -194 0.367879 0
w 194 2.718282 0
w -195 0.367879 0
w 195 2.718282 0
w -196 0.367879 0
w 196 2.718282 0
w -197 0.367879 0
w 197 2.718282 0
w -198 0.367879 0
w 198 2.718282 0
w -199 0.367879 0
w 199 2.718282 0
w -200 0.367879 0
w 200 2.718282 0
w -201 0.367879 0
w 201 2.718282 0
w -203 0.367879 0
w 203 2.718282 0
w -204 0.367879 0
w 204 2.718282 0
w -205 0.367879 0
w 205 2.718282 0
w -206 0.367879 0
w 206 2.718282 0
w -207 0.367879 0
w 207 2.718282 0
w -208 0.367879 0
w 208 2.718282 0
w -209 0.367879 0
w 209 2.718282 0
w -210 0.367879 0
w 210 2.718282 0
w -211 0.367879 0
w 211 2.718282 0
w -212 0.367879 0
w 212 2.718282 0
w -213 0.367879 0
w 213 2.718282 0
w -215 0.367879 0
w 215 2.718282 0
w -216 0.367879 0
w 216 2.718282 0
w -217 0.367879 0
w 217 2.718282 0
w -218 0.367879 0
w 218 2.718282 0
w -219 0.367879 0
w 219 2.718282 0
w -220 0.367879 0
w 220 2.718282 0
w -221 0.367879 0
w 221 2.718282 0
w -222 0.367879 0
w 222 2.718282 0
w -224 0.367879 0
w 224 2.718282 0
w -225 0.367879 0
w 225 2.718282 0
w -226 0.367879 0
w 226 2.718282 0
w -227 0.367879 0
w 227 2.718282 0
w -228 0.367879 0
w 228 2.718282 0
w -229 0.367879 0
w 229 2.718282 0
w -231 0.367879 0
w 231 2.718282 0
w -232 0.367879 0
w 232 2.718282 0
w -233 0.367879 0
w 233 2.718282 0
w -234 0.367879 0
w 234 2.718282 0
w -235 0.367879 0
w 235 2.718282 0
w -237 0.367879 0
w 237 2.718282 0
w -238 0.367879 0
w 238 2.718282 0
w -239 0.367879 0
w 239 2.718282 0
w -240 0.367879 0
w 240 2.718282 0
w -241 0.367879 0
w 241 2.718282 0
w -242 0.367879 0
w 242 2.718282 0
w -244 0.367879 0
w 244 2.718282 0
w -245 0.367879 0
w 245 2.718282 0
w -246 0.367879 0
w 246 2.718282 0
w -247 0.367879 0
w 247 2.718282 0
w -249 0.367879 0
w 249 2.718282 0
w -250 0.367879 0
w 250 2.718282 0
w -251 0.367879 0
w 251 2.718282 0
w -252 0.367879 0
w 252 2.718282 0
w -253 0.367879 0
w 253 2.718282 0
w -254 0.367879 0
w 254 2.718282 0
w -256 0.367879 0
w 256 2.718282 0
w -257 0.367879 0
w 257 2.718282 0
w -258 0.367879 0
w 258 2.718282 0
w -259 0.367879 0
w 259 2.718282 0
w -261 0.367879 0
w 261 2.718282 0
w -262 0.367879 0
w 262 2.718282 0
w -263 0.367879 0
w 263 2.718282 0
w -264 0.367879 0
w 264 2.718282 0
w -265 0.367879 0
w 265 2.718282 0
w -266 0.367879 0
w 266 2.718282 0
w -267 0.367879 0
w 267 2.718282 0
w -269 0.367879 0
w 269 2.718282 0
w -270 0.367879 0
w 270 2.718282 0
w -271 0.367879 0
w 271 2.718282 0
w -272 0.367879 0
w 272 2.718282 0
w -274 0.367879 0
w 274 2.718282 0
w -275 0.367879 0
w 275 2.718282 0
w -276 0.367879 0
w 276 2.718282 0
w -278 0.367879 0
w 278 2.718282 0
w -279 0.367879 0
w 279 2.718282 0
w -280 0.367879 0
w 280 2.718282 0
w -282 0.367879 0
w 282 2.718282 0
w -283 0.367879 0
w 283 2.718282 0
w -284 0.367879 0
w 284 2.718282 0
w -285 0.367879 0
w 285 2.718282 0
w -286 0.367879 0
w 286 2.718282 0
w -287 0.367879 0
w 287 2.718282 0
w -288 0.367879 0
w 288 2.718282 0
w -290 0.367879 0
w 290 2.718282 0
w -291 0.367879 0
w 291 2.718282 0
w -292 0.367879 0
w 292 2.718282 0
w -293 0.367879 0
w 293 2.718282 0
w -294 0.367879 0
w 294 2.718282 0
w -295 0.367879 0
w 295 2.718282 0
w -296 0.367879 0
w 296 2.718282 0
w -297 0.367879 0
w 297 2.718282 0
w -298 0.367879 0
w 298 2.718282 0
w -299 0.367879 0
w 299 2.718282 0
w -301 0.367879 0
w 301 2.718282 0
w -302 0.367879 0
w 302 2.718282 0
w -303 0.367879 0
w 303 2.718282 0
w -304 0.367879 0
w 304 2.718282 0
w -305 0.367879 0
w 305 2.718282 0
w -307 0.367879 0
w 307 2.718282 0
w -308 0.367879 0
w 308 2.718282 0
w -309 0.367879 0
w 309 2.718282 0
w -310 0.367879 0
w 310 2.718282 0
w -312 0.367879 0
w 312 2.718282 0
w -313 0.367879 0
w 313 2.718282 0
w -314 0.367879 0
w 314 2.718282 0
w -315 0.367879 0
w 315 2.718282 0
w -316 0.367879 0
w 316 2.718282 0
w -318 0.367879 0
w 318 2.718282 0
w -319 0.367879 0
w 319 2.718282 0
w -321 0.367879 0
w 321 2.718282 0
w -322 0.367879 0
w 322 2.718282 0
w -324 0.367879 0
w 324 2.718282 0
w -325 0.367879 0
w 325 2.718282 0
w -326 0.367879 0
w 326 2.718282 0
w -328 0.367879 0
w 328 2.718282 0
w -329 0.367879 0
w 329 2.718282 0
w -331 0.367879 0
w 331 2.718282 0
w -332 0.367879 0
w 332 2.718282 0
w -334 0.367879 0
w 334 2.718282 0
w -335 0.367879 0
w 335 2.718282 0
w -337 0.367879 0
w 337 2.718282 0
w -339 0.367879 0
w 339 2.718282 0
w -340 0.367879 0
w 340 2.718282 0
w -342 0.367879 0
w 342 2.718282 0
w -344 0.367879 0
w 344 2.718282 0
w -345 0.367879 0
w 345 2.718282 0
w -347 0.367879 0
w 347 2.718282 0
w -348 0.367879 0
w 348 2.718282 0
w -350 0.367879 0
w 350 2.718282 0
w -352 0.367879 0
w 352 2.718282 0
2 1 17 0
2 -1 -17 0
-2 1 -17 0
-2 -1 17 0
3 1 41 0
3 -1 -41 0
-3 1 -41 0
-3 -1 41 0
4 1 83 0
4 -1 -83 0
-4 1 -83 0
-4 -1 83 0
5 1 127 0
5 -1 -127 0
-5 1 -127 0
-5 -1 127 0
6 1 183 0
6 -1 -183 0
-6 1 -183 0
-6 -1 183 0
7 1 214 0
7 -1 -214 0
-7 1 -214 0
-7 -1 214 0
8 1 223 0
8 -1 -223 0
-8 1 -223 0
-8 -1 223 0
9 1 243 0
9 -1 -243 0
-9 1 -243 0
-9 -1 243 0
10 1 289 0
10 -1 -289 0
-10 1 -289 0
-10 -1 289 0
11 1 300 0
11 -1 -300 0
-11 1 -300 0
-11 -1 300 0
12 1 317 0
12 -1 -317 0
-12 1 -317 0
-12 -1 317 0
13 1 333 0
13 -1 -333 0
-13 1 -333 0
-13 -1 333 0
14 1 346 0
14 -1 -346 0
-14 1 -346 0
-14 -1 346 0
15 1 349 0
15 -1 -349 0
-15 1 -349 0
-15 -1 349 0
16 1 353 0
16 -1 -353 0
-16 1 -353 0
-16 -1 353 0
18 17 67 0
18 -17 -67 0
-18 17 -67 0
-18 -17 67 0
19 17 175 0
19 -17 -175 0
-19 17 -175 0
-19 -17 175 0
20 17 223 0
20 -17 -223 0
-20 17 -223 0
-20 -17 223 0
21 17 236 0
21 -17 -236 0
-21 17 -236 0
-21 -17 236 0
22 17 320 0
22 -17 -320 0
-22 17 -320 0
-22 -17 320 0
23 17 327 0
23 -17 -327 0
-23 17 -327 0
-23 -17 327 0
24 17 330 0
24 -17 -330 0
-24 17 -330 0
-24 -17 330 0
25 17 341 0
25 -17 -341 0
-25 17 -341 0
-25 -17 341 0
26 17 346 0
26 -17 -346 0
-26 17 -346 0
-26 -17 346 0
28 27 41 0
28 -27 -41 0
-28 27 -41 0
-28 -27 41 0
29 27 55 0
29 -27 -55 0
-29 27 -55 0
-29 -27 55 0
30 27 98 0
30 -27 -98 0
-30 27 -98 0
-30 -27 98 0
31 27 127 0
31 -27 -127 0
-31 27 -127 0
-31 -27 127 0
32 27 136 0
32 -27 -136 0
-32 27 -136 0
-32 -27 136 0
33 27 214 0
33 -27 -214 0
-33 27 -214 0
-33 -27 214 0
34 27 243 0
34 -27 -243 0
-34 27 -243 0
-34 -27 243 0
35 27 248 0
35 -27 -248 0
-35 27 -248 0
-35 -27 248 0
36 27 273 0
36 -27 -273 0
-36 27 -273 0
-36 -27 273 0
37 27 306 0
37 -27 -306 0
-37 27 -306 0
-37 -27 306 0
38 27 327 0
38 -27 -327 0
-38 27 -327 0
-38 -27 327 0
39 27 349 0
39 -27 -349 0
-39 27 -349 0
-39 -27 349 0
40 27 353 0
40 -27 -353 0
-40 27 -353 0
-40 -27 353 0
42 41 55 0
42 -41 -55 0
-42 41 -55 0
-42 -41 55 0
43 41 98 0
43 -41 -98 0
-43 41 -98 0
-43 -41 98 0
44 41 115 0
44 -41 -115 0
-44 41 -115 0
-44 -41 115 0
45 41 127 0
45 -41 -127 0
-45 41 -127 0
-45 -41 127 0
46 41 183 0
46 -41 -183 0
-46 41 -183 0
-46 -41 183 0
47 41 214 0
47 -41 -214 0
-47 41 -214 0
-47 -41 214 0
48 41 223 0
48 -41 -223 0
-48 41 -223 0
-48 -41 223 0
49 41 300 0
49 -41 -300 0
-49 41 -300 0
-49 -41 300 0
50 41 306 0
50 -41 -306 0
-50 41 -306 0
-50 -41 306 0
51 41 311 0
51 -41 -311 0
-51 41 -311 0
-51 -41 311 0
52 41 327 0
52 -41 -327 0
-52 41 -327 0
-52 -41 327 0
53 41 343 0
53 -41 -343 0
-53 41 -343 0
-53 -41 343 0
54 41 346 0
54 -41 -346 0
-54 41 -346 0
-54 -41 346 0
56 55 67 0
56 -55 -67 0
-56 55 -67 0
-56 -55 67 0
57 55 78 0
57 -55 -78 0
-57 55 -78 0
-57 -55 78 0
58 55 83 0
58 -55 -83 0
-58 55 -83 0
-58 -55 83 0
59 55 115 0
59 -55 -115 0
-59 55 -115 0
-59 -55 115 0
60 55 223 0
60 -55 -223 0
-60 55 -223 0
-60 -55 223 0
61 55 236 0
61 -55 -236 0
-61 55 -236 0
-61 -55 236 0
62 55 300 0
62 -55 -300 0
-62 55 -300 0
-62 -55 300 0
63 55 306 0
63 -55 -306 0
-63 55 -306 0
-63 -55 306 0
64 55 336 0
64 -55 -336 0
-64 55 -336 0
-64 -55 336 0
65 55 341 0
65 -55 -341 0
-65 55 -341 0
-65 -55 341 0
66 55 346 0
66 -55 -346 0
-66 55 -346 0
-66 -55 346 0
68 67 157 0
68 -67 -157 0
-68 67 -157 0
-68 -67 157 0
69 67 163 0
69 -67 -163 0
-69 67 -163 0
-69 -67 163 0
70 67 223 0
70 -67 -223 0
-70 67 -223 0
-70 -67 223 0
71 67 243 0
71 -67 -243 0
-71 67 -243 0
-71 -67 243 0
72 67 268 0
72 -67 -268 0
-72 67 -268 0
-72 -67 268 0
73 67 300 0
73 -67 -300 0
-73 67 -300 0
-73 -67 300 0
74 67 333 0
74 -67 -333 0
-74 67 -333 0
-74 -67 333 0
75 67 351 0
75 -67 -351 0
-75 67 -351 0
-75 -67 351 0
76 67 353 0
76 -67 -353 0
-76 67 -353 0
-76 -67 353 0
77 67 354 0
77 -67 -354 0
-77 67 -354 0
-77 -67 354 0
79 78 183 0
79 -78 -183 0
-79 78 -183 0
-79 -78 183 0
80 78 268 0
80 -78 -268 0
-80 78 -268 0
-80 -78 268 0
81 78 311 0
81 -78 -311 0
-81 78 -311 0
-81 -78 311 0
82 78 338 0
82 -78 -338 0
-82 78 -338 0
-82 -78 338 0
84 83 115 0
84 -83 -115 0
-84 83 -115 0
-84 -83 115 0
85 83 183 0
85 -83 -183 0
-85 83 -183 0
-85 -83 183 0
86 83 223 0
86 -83 -223 0
-86 83 -223 0
-86 -83 223 0
87 83 236 0
87 -83 -236 0
-87 83 -236 0
-87 -83 236 0
88 83 243 0
88 -83 -243 0
-88 83 -243 0
-88 -83 243 0
89 83 248 0
89 -83 -248 0
-89 83 -248 0
-89 -83 248 0
90 83 255 0
90 -83 -255 0
-90 83 -255 0
-90 -83 255 0
91 83 277 0
91 -83 -277 0
-91 83 -277 0
-91 -83 277 0
92 83 306 0
92 -83 -306 0
-92 83 -306 0
-92 -83 306 0
93 83 338 0
93 -83 -338 0
-93 83 -338 0
-93 -83 338 0
94 83 343 0
94 -83 -343 0
-94 83 -343 0
-94 -83 343 0
95 83 346 0
95 -83 -346 0
-95 83 -346 0
-95 -83 346 0
96 83 349 0
96 -83 -349 0
-96 83 -349 0
-96 -83 349 0
97 83 353 0
97 -83 -353 0
-97 83 -353 0
-97 -83 353 0
99 98 115 0
99 -98 -115 0
-99 98 -115 0
-99 -98 115 0
100 98 127 0
100 -98 -127 0
-100 98 -127 0
-100 -98 127 0
101 98 136 0
101 -98 -136 0
-101 98 -136 0
-101 -98 136 0
102 98 148 0
102 -98 -148 0
-102 98 -148 0
-102 -98 148 0
103 98 175 0
103 -98 -175 0
-103 98 -175 0
-103 -98 175 0
104 98 214 0
104 -98 -214 0
-104 98 -214 0
-104 -98 214 0
105 98 223 0
105 -98 -223 0
-105 98 -223 0
-105 -98 223 0
106 98 243 0
106 -98 -243 0
-106 98 -243 0
-106 -98 243 0
107 98 260 0
107 -98 -260 0
-107 98 -260 0
-107 -98 260 0
108 98 273 0
108 -98 -273 0
-108 98 -273 0
-108 -98 273 0
109 98 289 0
109 -98 -289 0
-109 98 -289 0
-109 -98 289 0
110 98 320 0
110 -98 -320 0
-110 98 -320 0
-110 -98 320 0
111 98 323 0
111 -98 -323 0
-111 98 -323 0
-111 -98 323 0
112 98 346 0
112 -98 -346 0
-112 98 -346 0
-112 -98 346 0
113 98 349 0
113 -98 -349 0
-113 98 -349 0
-113 -98 349 0
114 98 351 0
114 -98 -351 0
-114 98 -351 0
-114 -98 351 0
116 115 127 0
116 -115 -127 0
-116 115 -127 0
-116 -115 127 0
117 115 192 0
117 -115 -192 0
-117 115 -192 0
-117 -115 192 0
118 115 248 0
118 -115 -248 0
-118 115 -248 0
-118 -115 248 0
119 115 277 0
119 -115 -277 0
-119 115 -277 0
-119 -115 277 0
120 115 289 0
120 -115 -289 0
-120 115 -289 0
-120 -115 289 0
121 115 323 0
121 -115 -323 0
-121 115 -323 0
-121 -115 323 0
122 115 327 0
122 -115 -327 0
-122 115 -327 0
-122 -115 327 0
123 115 336 0
123 -115 -336 0
-123 115 -336 0
-123 -115 336 0
124 115 341 0
124 -115 -341 0
-124 115 -341 0
-124 -115 341 0
125 115 349 0
125 -115 -349 0
-125 115 -349 0
-125 -115 349 0
126 115 351 0
126 -115 -351 0
-126 115 -351 0
-126 -115 351 0
128 127 136 0
128 -127 -136 0
-128 127 -136 0
-128 -127 136 0
129 127 183 0
129 -127 -183 0
-129 127 -183 0
-129 -127 183 0
130 127 192 0
130 -127 -192 0
-130 127 -192 0
-130 -127 192 0
131 127 223 0
131 -127 -223 0
-131 127 -223 0
-131 -127 223 0
132 127 243 0
132 -127 -243 0
-132 127 -243 0
-132 -127 243 0
133 127 306 0
133 -127 -306 0
-133 127 -306 0
-133 -127 306 0
134 127 317 0
134 -127 -317 0
-134 127 -317 0
-134 -127 317 0
135 127 330 0
135 -127 -330 0
-135 127 -330 0
-135 -127 330 0
137 136 148 0
137 -136 -148 0
-137 136 -148 0
-137 -136 148 0
138 136 214 0
138 -136 -214 0
-138 136 -214 0
-138 -136 214 0
139 136 236 0
139 -136 -236 0
-139 136 -236 0
-139 -136 236 0
140 136 273 0
140 -136 -273 0
-140 136 -273 0
-140 -136 273 0
141 136 300 0
141 -136 -300 0
-141 136 -300 0
-141 -136 300 0
142 136 306 0
142 -136 -306 0
-142 136 -306 0
-142 -136 306 0
143 136 311 0
143 -136 -311 0
-143 136 -311 0
-143 -136 311 0
144 136 336 0
144 -136 -336 0
-144 136 -336 0
-144 -136 336 0
145 136 338 0
145 -136 -338 0
-145 136 -338 0
-145 -136 338 0
146 136 341 0
146 -136 -341 0
-146 136 -341 0
-146 -136 341 0
147 136 353 0
147 -136 -353 0
-147 136 -353 0
-147 -136 353 0
149 148 243 0
149 -148 -243 0
-149 148 -243 0
-149 -148 243 0
150 148 268 0
150 -148 -268 0
-150 148 -268 0
-150 -148 268 0
151 148 277 0
151 -148 -277 0
-151 148 -277 0
-151 -148 277 0
152 148 323 0
152 -148 -323 0
-152 148 -323 0
-152 -148 323 0
153 148 338 0
153 -148 -338 0
-153 148 -338 0
-153 -148 338 0
154 148 343 0
154 -148 -343 0
-154 148 -343 0
-154 -148 343 0
155 148 349 0
155 -148 -349 0
-155 148 -349 0
-155 -148 349 0
156 148 351 0
156 -148 -351 0
-156 148 -351 0
-156 -148 351 0
158 157 236 0
158 -157 -236 0
-158 157 -236 0
-158 -157 236 0
159 157 268 0
159 -157 -268 0
-159 157 -268 0
-159 -157 268 0
160 157 320 0
160 -157 -320 0
-160 157 -320 0
-160 -157 320 0
161 157 323 0
161 -157 -323 0
-161 157 -323 0
-161 -157 323 0
162 157 327 0
162 -157 -327 0
-162 157 -327 0
-162 -157 327 0
164 163 192 0
164 -163 -192 0
-164 163 -192 0
-164 -163 192 0
165 163 202 0
165 -163 -202 0
-165 163 -202 0
-165 -163 202 0
166 163 214 0
166 -163 -214 0
-166 163 -214 0
-166 -163 214 0
167 163 223 0
167 -163 -223 0
-167 163 -223 0
-167 -163 223 0
168 163 243 0
168 -163 -243 0
-168 163 -243 0
-168 -163 243 0
169 163 260 0
169 -163 -260 0
-169 163 -260 0
-169 -163 260 0
170 163 268 0
170 -163 -268 0
-170 163 -268 0
-170 -163 268 0
171 163 300 0
171 -163 -300 0
-171 163 -300 0
-171 -163 300 0
172 163 306 0
172 -163 -306 0
-172 163 -306 0
-172 -163 306 0
173 163 330 0
173 -163 -330 0
-173 163 -330 0
-173 -163 330 0
174 163 351 0
174 -163 -351 0
-174 163 -351 0
-174 -163 351 0
176 175 243 0
176 -175 -243 0
-176 175 -243 0
-176 -175 243 0
177 175 255 0
177 -175 -255 0
-177 175 -255 0
-177 -175 255 0
178 175 300 0
178 -175 -300 0
-178 175 -300 0
-178 -175 300 0
179 175 317 0
179 -175 -317 0
-179 175 -317 0
-179 -175 317 0
180 175 346 0
180 -175 -346 0
-180 175 -346 0
-180 -175 346 0
181 175 351 0
181 -175 -351 0
-181 175 -351 0
-181 -175 351 0
182 175 353 0
182 -175 -353 0
-182 175 -353 0
-182 -175 353 0
184 183 192 0
184 -183 -192 0
-184 183 -192 0
-184 -183 192 0
185 183 230 0
185 -183 -230 0
-185 183 -230 0
-185 -183 230 0
186 183 236 0
186 -183 -236 0
-186 183 -236 0
-186 -183 236 0
187 183 268 0
187 -183 -268 0
-187 183 -268 0
-187 -183 268 0
188 183 289 0
188 -183 -289 0
-188 183 -289 0
-188 -183 289 0
189 183 323 0
189 -183 -323 0
-189 183 -323 0
-189 -183 323 0
190 183 336 0
190 -183 -336 0
-190 183 -336 0
-190 -183 336 0
191 183 351 0
191 -183 -351 0
-191 183 -351 0
-191 -183 351 0
193 192 230 0
193 -192 -230 0
-193 192 -230 0
-193 -192 230 0
194 192 260 0
194 -192 -260 0
-194 192 -260 0
-194 -192 260 0
195 192 311 0
195 -192 -311 0
-195 192 -311 0
-195 -192 311 0
196 192 327 0
196 -192 -327 0
-196 192 -327 0
-196 -192 327 0
197 192 330 0
197 -192 -330 0
-197 192 -330 0
-197 -192 330 0
198 192 338 0
198 -192 -338 0
-198 192 -338 0
-198 -192 338 0
199 192 341 0
199 -192 -341 0
-199 192 -341 0
-199 -192 341 0
200 192 351 0
200 -192 -351 0
-200 192 -351 0
-200 -192 351 0
201 192 354 0
201 -192 -354 0
-201 192 -354 0
-201 -192 354 0
203 202 223 0
203 -202 -223 0
-203 202 -223 0
-203 -202 223 0
204 202 230 0
204 -202 -230 0
-204 202 -230 0
-204 -202 230 0
205 202 248 0
205 -202 -248 0
-205 202 -248 0
-205 -202 248 0
206 202 260 0
206 -202 -260 0
-206 202 -260 0
-206 -202 260 0
207 202 273 0
207 -202 -273 0
-207 202 -273 0
-207 -202 273 0
208 202 300 0
208 -202 -300 0
-208 202 -300 0
-208 -202 300 0
209 202 311 0
209 -202 -311 0
-209 202 -311 0
-209 -202 311 0
210 202 320 0
210 -202 -320 0
-210 202 -320 0
-210 -202 320 0
211 202 323 0
211 -202 -323 0
-211 202 -323 0
-211 -202 323 0
212 202 346 0
212 -202 -346 0
-212 202 -346 0
-212 -202 346 0
213 202 353 0
213 -202 -353 0
-213 202 -353 0
-213 -202 353 0
215 214 230 0
215 -214 -230 0
-215 214 -230 0
-215 -214 230 0
216 214 260 0
216 -214 -260 0
-216 214 -260 0
-216 -214 260 0
217 214 281 0
217 -214 -281 0
-217 214 -281 0
-217 -214 281 0
218 214 289 0
218 -214 -289 0
-218 214 -289 0
-218 -214 289 0
219 214 320 0
219 -214 -320 0
-219 214 -320 0
-219 -214 320 0
220 214 341 0
220 -214 -341 0
-220 214 -341 0
-220 -214 341 0
221 214 349 0
221 -214 -349 0
-221 214 -349 0
-221 -214 349 0
222 214 351 0
222 -214 -351 0
-222 214 -351 0
-222 -214 351 0
224 223 230 0
224 -223 -230 0
-224 223 -230 0
-224 -223 230 0
225 223 277 0
225 -223 -277 0
-225 223 -277 0
-225 -223 277 0
226 223 341 0
226 -223 -341 0
-226 223 -341 0
-226 -223 341 0
227 223 346 0
227 -223 -346 0
-227 223 -346 0
-227 -223 346 0
228 223 349 0
228 -223 -349 0
-228 223 -349 0
-228 -223 349 0
229 223 351 0
229 -223 -351 0
-229 223 -351 0
-229 -223 351 0
231 230 236 0
231 -230 -236 0
-231 230 -236 0
-231 -230 236 0
232 230 260 0
232 -230 -260 0
-232 230 -260 0
-232 -230 260 0
233 230 317 0
233 -230 -317 0
-233 230 -317 0
-233 -230 317 0
234 230 323 0
234 -230 -323 0
-234 230 -323 0
-234 -230 323 0
235 230 333 0
235 -230 -333 0
-235 230 -333 0
-235 -230 333 0
237 236 281 0
237 -236 -281 0
-237 236 -281 0
-237 -236 281 0
238 236 289 0
238 -236 -289 0
-238 236 -289 0
-238 -236 289 0
239 236 300 0
239 -236 -300 0
-239 236 -300 0
-239 -236 300 0
240 236 306 0
240 -236 -306 0
-240 236 -306 0
-240 -236 306 0
241 236 311 0
241 -236 -311 0
-241 236 -311 0
-241 -236 311 0
242 236 317 0
242 -236 -317 0
-242 236 -317 0
-242 -236 317 0
244 243 317 0
244 -243 -317 0
-244 243 -317 0
-244 -243 317 0
245 243 343 0
245 -243 -343 0
-245 243 -343 0
-245 -243 343 0
246 243 346 0
246 -243 -346 0
-246 243 -346 0
-246 -243 346 0
247 243 353 0
247 -243 -353 0
-247 243 -353 0
-247 -243 353 0
249 248 277 0
249 -248 -277 0
-249 248 -277 0
-249 -248 277 0
250 248 300 0
250 -248 -300 0
-250 248 -300 0
-250 -248 300 0
251 248 306 0
251 -248 -306 0
-251 248 -306 0
-251 -248 306 0
252 248 327 0
252 -248 -327 0
-252 248 -327 0
-252 -248 327 0
253 248 330 0
253 -248 -330 0
-253 248 -330 0
-253 -248 330 0
254 248 353 0
254 -248 -353 0
-254 248 -353 0
-254 -248 353 0
256 255 289 0
256 -255 -289 0
-256 255 -289 0
-256 -255 289 0
257 255 311 0
257 -255 -311 0
-257 255 -311 0
-257 -255 311 0
258 255 351 0
258 -255 -351 0
-258 255 -351 0
-258 -255 351 0
259 255 353 0
259 -255 -353 0
-259 255 -353 0
-259 -255 353 0
261 260 268 0
261 -260 -268 0
-261 260 -268 0
-261 -260 268 0
262 260 300 0
262 -260 -300 0
-262 260 -300 0
-262 -260 300 0
263 260 320 0
263 -260 -320 0
-263 260 -320 0
-263 -260 320 0
264 260 327 0
264 -260 -327 0
-264 260 -327 0
-264 -260 327 0
265 260 333 0
265 -260 -333 0
-265 260 -333 0
-265 -260 333 0
266 260 341 0
266 -260 -341 0
-266 260 -341 0
-266 -260 341 0
267 260 346 0
267 -260 -346 0
-267 260 -346 0
-267 -260 346 0
269 268 289 0
269 -268 -289 0
-269 268 -289 0
-269 -268 289 0
270 268 317 0
270 -268 -317 0
-270 268 -317 0
-270 -268 317 0
271 268 346 0
271 -268 -346 0
-271 268 -346 0
-271 -268 346 0
272 268 354 0
272 -268 -354 0
-272 268 -354 0
-272 -268 354 0
274 273 289 0
274 -273 -289 0
-274 273 -289 0
-274 -273 289 0
275 273 317 0
275 -273 -317 0
-275 273 -317 0
-275 -273 317 0
276 273 343 0
276 -273 -343 0
-276 273 -343 0
-276 -273 343 0
278 277 320 0
278 -277 -320 0
-278 277 -320 0
-278 -277 320 0
279 277 333 0
279 -277 -333 0
-279 277 -333 0
-279 -277 333 0
280 277 336 0
280 -277 -336 0
-280 277 -336 0
-280 -277 336 0
282 281 289 0
282 -281 -289 0
-282 281 -289 0
-282 -281 289 0
283 281 306 0
283 -281 -306 0
-283 281 -306 0
-283 -281 306 0
284 281 311 0
284 -281 -311 0
-284 281 -311 0
-284 -281 311 0
285 281 317 0
285 -281 -317 0
-285 281 -317 0
-285 -281 317 0
286 281 323 0
286 -281 -323 0
-286 281 -323 0
-286 -281 323 0
287 281 338 0
287 -281 -338 0
-287 281 -338 0
-287 -281 338 0
288 281 353 0
288 -281 -353 0
-288 281 -353 0
-288 -281 353 0
290 289 300 0
290 -289 -300 0
-290 289 -300 0
-290 -289 300 0
291 289 306 0
291 -289 -306 0
-291 289 -306 0
-291 -289 306 0
292 289 320 0
292 -289 -320 0
-292 289 -320 0
-292 -289 320 0
293 289 323 0
293 -289 -323 0
-293 289 -323 0
-293 -289 323 0
294 289 333 0
294 -289 -333 0
-294 289 -333 0
-294 -289 333 0
295 289 338 0
295 -289 -338 0
-295 289 -338 0
-295 -289 338 0
296 289 341 0
296 -289 -341 0
-296 289 -341 0
-296 -289 341 0
297 289 346 0
297 -289 -346 0
-297 289 -346 0
-297 -289 346 0
298 289 349 0
298 -289 -349 0
-298 289 -349 0
-298 -289 349 0
299 289 351 0
299 -289 -351 0
-299 289 -351 0
-299 -289 351 0
301 300 311 0
301 -300 -311 0
-301 300 -311 0
-301 -300 311 0
302 300 317 0
302 -300 -317 0
-302 300 -317 0
-302 -300 317 0
303 300 327 0
303 -300 -327 0
-303 300 -327 0
-303 -300 327 0
304 300 341 0
304 -300 -341 0
-304 300 -341 0
-304 -300 341 0
305 300 343 0
305 -300 -343 0
-305 300 -343 0
-305 -300 343 0
307 306 317 0
307 -306 -317 0
-307 306 -317 0
-307 -306 317 0
308 306 338 0
308 -306 -338 0
-308 306 -338 0
-308 -306 338 0
309 306 343 0
309 -306 -343 0
-309 306 -343 0
-309 -306 343 0
310 306 346 0
310 -306 -346 0
-310 306 -346 0
-310 -306 346 0
312 311 327 0
312 -311 -327 0
-312 311 -327 0
-312 -311 327 0
313 311 330 0
313 -311 -330 0
-313 311 -330 0
-313 -311 330 0
314 311 338 0
314 -311 -338 0
-314 311 -338 0
-314 -311 338 0
315 311 341 0
315 -311 -341 0
-315 311 -341 0
-315 -311 341 0
316 311 346 0
316 -311 -346 0
-316 311 -346 0
-316 -311 346 0
318 317 323 0
318 -317 -323 0
-318 317 -323 0
-318 -317 323 0
319 317 333 0
319 -317 -333 0
-319 317 -333 0
-319 -317 333 0
321 320 333 0
321 -320 -333 0
-321 320 -333 0
-321 -320 333 0
322 320 341 0
322 -320 -341 0
-322 320 -341 0
-322 -320 341 0
324 323 341 0
324 -323 -341 0
-324 323 -341 0
-324 -323 341 0
325 323 343 0
325 -323 -343 0
-325 323 -343 0
-325 -323 343 0
326 323 346 0
326 -323 -346 0
-326 323 -346 0
-326 -323 346 0
328 327 346 0
328 -327 -346 0
-328 327 -346 0
-328 -327 346 0
329 327 349 0
329 -327 -349 0
-329 327 -349 0
-329 -327 349 0
331 330 341 0
331 -330 -341 0
-331 330 -341 0
-331 -330 341 0
332 330 349 0
332 -330 -349 0
-332 330 -349 0
-332 -330 349 0
334 333 336 0
334 -333 -336 0
-334 333 -336 0
-334 -333 336 0
335 333 343 0
335 -333 -343 0
-335 333 -343 0
-335 -333 343 0
337 336 343 0
337 -336 -343 0
-337 336 -343 0
-337 -336 343 0
339 338 349 0
339 -338 -349 0
-339 338 -349 0
-339 -338 349 0
340 338 353 0
340 -338 -353 0
-340 338 -353 0
-340 -338 353 0
342 341 343 0
342 -341 -343 0
-342 341 -343 0
-342 -341 343 0
344 343 346 0
344 -343 -346 0
-344 343 -346 0
-344 -343 346 0
345 343 351 0
345 -343 -351 0
-345 343 -351 0
-345 -343 351 0
347 346 351 0
347 -346 -351 0
-347 346 -351 0
-347 -346 351 0
348 346 353 0
348 -346 -353 0
-348 346 -353 0
-348 -346 353 0
350 349 353 0
350 -349 -353 0
-350 349 -353 0
-350 -349 353 0
352 351 353 0
352 -351 -353 0
-352 351 -353 0
-352 -351 353 0
